c 변수 10개, 절 25개 (Ratio 2.5)
p cnf 10 25
1 -2 3 0
-1 2 4 0
-3 -4 5 0
1 6 -7 0
-6 7 8 0
-5 -8 9 0
2 9 10 0
-1 -10 3 0
-2 4 6 0
3 -5 -7 0
4 8 -9 0
5 -6 10 0
-1 -2 -3 0
1 2 5 0
-4 6 7 0
-7 -8 -9 0
3 5 8 0
2 4 10 0
-1 9 -10 0
6 -8 2 0
-3 7 4 0
5 -9 1 0
-2 -6 8 0
4 -7 10 0
-5 3 -1 0
%
0